decision_x1=[0,2];
decision_x2=[0,2];
decision_x3=[0,2];
decision_x4=[0,2];
decision_x5=[0,2];
random_y1=[0,2];
constraint_x2_x1=[
0,0,3.3|
0,1,1.3|
0,2,2.8|
1,0,5.2|
1,1,1.5|
1,2,9.9|
2,0,4.4|
2,1,2.2|
2,2,6.6|
];
constraint_x3_x2=[
0,0,8.6|
0,1,3.7|
0,2,6.6|
1,0,0.22|
1,1,4.4|
1,2,5.9|
2,0,3.1|
2,1,3.9|
2,2,5.1|
];
constraint_x5_x1=[
0,0,2.1|
0,1,5|
0,2,7.9|
1,0,3.2|
1,1,8|
1,2,1.4|
2,0,1.2|
2,1,8.8|
2,2,5.3|
];
constraint_x5_x2=[
0,0,8.4|
0,1,2.8|
0,2,1.5|
1,0,2.5|
1,1,5|
1,2,4.4|
2,0,6.3|
2,1,7.6|
2,2,9.8|
];
constraint_x5_x4=[
0,0,9.2|
0,1,5.7|
0,2,6.9|
1,0,4.3|
1,1,0.86|
1,2,1.1|
2,0,2.5|
2,1,5.5|
2,2,9|
];
constraint_x1_y1=[
0,0,5.9|
0,1,9.7|
0,2,4.3|
1,0,1.7|
1,1,7.4|
1,2,6.9|
2,0,1.3|
2,1,2.7|
2,2,3.7|
];
initial_distribution_y1=[0.19,0.54,0.27];
transition_y1=[
0.029,0.51,0.46|
0.27,0.33,0.4|
0.29,0.05,0.66|
];
